p cnf 122 544
1 -61 0
1 -62 0
61 -61 0
62 -62 0
16 -65 0
16 -66 0
65 -65 0
66 -66 0
31 -69 0
31 -70 0
69 -69 0
70 -70 0
46 -73 0
46 -74 0
73 -73 0
74 -74 0
-2 -61 0
-2 -62 0
61 -61 0
62 -62 0
-17 -65 0
-17 -66 0
65 -65 0
66 -66 0
-32 -69 0
-32 -70 0
69 -69 0
70 -70 0
-47 -73 0
-47 -74 0
73 -73 0
74 -74 0
3 -61 0
3 -62 0
61 -61 0
62 -62 0
18 -65 0
18 -66 0
65 -65 0
66 -66 0
33 -69 0
33 -70 0
69 -69 0
70 -70 0
48 -73 0
48 -74 0
73 -73 0
74 -74 0
-4 -61 0
-4 -62 0
61 -61 0
62 -62 0
-19 -65 0
-19 -66 0
65 -65 0
66 -66 0
-34 -69 0
-34 -70 0
69 -69 0
70 -70 0
-49 -73 0
-49 -74 0
73 -73 0
74 -74 0
-5 -61 0
-5 -62 0
61 -61 0
62 -62 0
-20 -65 0
-20 -66 0
65 -65 0
66 -66 0
-35 -69 0
-35 -70 0
69 -69 0
70 -70 0
-50 -73 0
-50 -74 0
73 -73 0
74 -74 0
6 -77 -61 0
-6 77 -61 0
6 77 -62 0
-6 -77 -62 0
21 -77 -65 0
-21 77 -65 0
21 77 -66 0
-21 -77 -66 0
36 -77 -69 0
-36 77 -69 0
36 77 -70 0
-36 -77 -70 0
51 -77 -73 0
-51 77 -73 0
51 77 -74 0
-51 -77 -74 0
7 -61 0
7 -62 0
61 -61 0
62 -62 0
22 -65 0
22 -66 0
65 -65 0
66 -66 0
37 -69 0
37 -70 0
69 -69 0
70 -70 0
52 -73 0
52 -74 0
73 -73 0
74 -74 0
8 -61 0
8 -62 0
61 -61 0
62 -62 0
23 -65 0
23 -66 0
65 -65 0
66 -66 0
38 -69 0
38 -70 0
69 -69 0
70 -70 0
53 -73 0
53 -74 0
73 -73 0
74 -74 0
9 -61 0
9 -62 0
61 -61 0
62 -62 0
24 -65 0
24 -66 0
65 -65 0
66 -66 0
39 -69 0
39 -70 0
69 -69 0
70 -70 0
54 -73 0
54 -74 0
73 -73 0
74 -74 0
10 -78 -61 0
-10 78 -61 0
10 78 -62 0
-10 -78 -62 0
25 -78 -65 0
-25 78 -65 0
25 78 -66 0
-25 -78 -66 0
40 -78 -69 0
-40 78 -69 0
40 78 -70 0
-40 -78 -70 0
55 -78 -73 0
-55 78 -73 0
55 78 -74 0
-55 -78 -74 0
11 -61 0
11 -62 0
61 -61 0
62 -62 0
26 -65 0
26 -66 0
65 -65 0
66 -66 0
41 -69 0
41 -70 0
69 -69 0
70 -70 0
56 -73 0
56 -74 0
73 -73 0
74 -74 0
12 -61 0
12 -62 0
61 -61 0
62 -62 0
27 -65 0
27 -66 0
65 -65 0
66 -66 0
42 -69 0
42 -70 0
69 -69 0
70 -70 0
57 -73 0
57 -74 0
73 -73 0
74 -74 0
13 -61 0
13 -62 0
61 -61 0
62 -62 0
28 -65 0
28 -66 0
65 -65 0
66 -66 0
43 -69 0
43 -70 0
69 -69 0
70 -70 0
58 -73 0
58 -74 0
73 -73 0
74 -74 0
14 -61 0
14 -62 0
61 -61 0
62 -62 0
29 -65 0
29 -66 0
65 -65 0
66 -66 0
44 -69 0
44 -70 0
69 -69 0
70 -70 0
59 -73 0
59 -74 0
73 -73 0
74 -74 0
15 -61 0
15 -62 0
61 -61 0
62 -62 0
30 -65 0
30 -66 0
65 -65 0
66 -66 0
45 -69 0
45 -70 0
69 -69 0
70 -70 0
60 -73 0
60 -74 0
73 -73 0
74 -74 0
-107 61 0
107 -61 0
-108 62 0
107 -62 0
-107 -61 0
-108 -62 0
-111 61 107 0
111 -61 0
111 -107 0
-112 62 108 0
112 -62 0
112 -108 0
-111 -65 0
-112 -66 0
-115 65 111 0
115 -65 0
115 -111 0
-116 66 112 0
116 -66 0
116 -112 0
-115 -69 0
-116 -70 0
-119 69 115 0
119 -69 0
119 -115 0
-120 70 116 0
120 -70 0
120 -116 0
-119 -73 0
-120 -74 0
119 0
120 0
1 -63 0
1 -64 0
63 -63 0
64 -64 0
16 -67 0
16 -68 0
67 -67 0
68 -68 0
31 -71 0
31 -72 0
71 -71 0
72 -72 0
46 -75 0
46 -76 0
75 -75 0
76 -76 0
-2 -63 0
-2 -64 0
63 -63 0
64 -64 0
-17 -67 0
-17 -68 0
67 -67 0
68 -68 0
-32 -71 0
-32 -72 0
71 -71 0
72 -72 0
-47 -75 0
-47 -76 0
75 -75 0
76 -76 0
3 -63 0
3 -64 0
63 -63 0
64 -64 0
18 -67 0
18 -68 0
67 -67 0
68 -68 0
33 -71 0
33 -72 0
71 -71 0
72 -72 0
48 -75 0
48 -76 0
75 -75 0
76 -76 0
-4 -63 0
-4 -64 0
63 -63 0
64 -64 0
-19 -67 0
-19 -68 0
67 -67 0
68 -68 0
-34 -71 0
-34 -72 0
71 -71 0
72 -72 0
-49 -75 0
-49 -76 0
75 -75 0
76 -76 0
-5 -63 0
-5 -64 0
63 -63 0
64 -64 0
-20 -67 0
-20 -68 0
67 -67 0
68 -68 0
-35 -71 0
-35 -72 0
71 -71 0
72 -72 0
-50 -75 0
-50 -76 0
75 -75 0
76 -76 0
-6 -63 0
-6 -64 0
63 -63 0
64 -64 0
-21 -67 0
-21 -68 0
67 -67 0
68 -68 0
-36 -71 0
-36 -72 0
71 -71 0
72 -72 0
-51 -75 0
-51 -76 0
75 -75 0
76 -76 0
7 -79 -63 0
-7 79 -63 0
7 79 -64 0
-7 -79 -64 0
22 -79 -67 0
-22 79 -67 0
22 79 -68 0
-22 -79 -68 0
37 -79 -71 0
-37 79 -71 0
37 79 -72 0
-37 -79 -72 0
52 -79 -75 0
-52 79 -75 0
52 79 -76 0
-52 -79 -76 0
8 -80 -63 0
-8 80 -63 0
8 80 -64 0
-8 -80 -64 0
23 -80 -67 0
-23 80 -67 0
23 80 -68 0
-23 -80 -68 0
38 -80 -71 0
-38 80 -71 0
38 80 -72 0
-38 -80 -72 0
53 -80 -75 0
-53 80 -75 0
53 80 -76 0
-53 -80 -76 0
9 -81 -63 0
-9 81 -63 0
9 81 -64 0
-9 -81 -64 0
24 -81 -67 0
-24 81 -67 0
24 81 -68 0
-24 -81 -68 0
39 -81 -71 0
-39 81 -71 0
39 81 -72 0
-39 -81 -72 0
54 -81 -75 0
-54 81 -75 0
54 81 -76 0
-54 -81 -76 0
-10 -63 0
-10 -64 0
63 -63 0
64 -64 0
-25 -67 0
-25 -68 0
67 -67 0
68 -68 0
-40 -71 0
-40 -72 0
71 -71 0
72 -72 0
-55 -75 0
-55 -76 0
75 -75 0
76 -76 0
11 -63 0
11 -64 0
63 -63 0
64 -64 0
26 -67 0
26 -68 0
67 -67 0
68 -68 0
41 -71 0
41 -72 0
71 -71 0
72 -72 0
56 -75 0
56 -76 0
75 -75 0
76 -76 0
12 -63 0
12 -64 0
63 -63 0
64 -64 0
27 -67 0
27 -68 0
67 -67 0
68 -68 0
42 -71 0
42 -72 0
71 -71 0
72 -72 0
57 -75 0
57 -76 0
75 -75 0
76 -76 0
-13 -63 0
-13 -64 0
63 -63 0
64 -64 0
-28 -67 0
-28 -68 0
67 -67 0
68 -68 0
-43 -71 0
-43 -72 0
71 -71 0
72 -72 0
-58 -75 0
-58 -76 0
75 -75 0
76 -76 0
14 -63 0
14 -64 0
63 -63 0
64 -64 0
29 -67 0
29 -68 0
67 -67 0
68 -68 0
44 -71 0
44 -72 0
71 -71 0
72 -72 0
59 -75 0
59 -76 0
75 -75 0
76 -76 0
15 -63 0
15 -64 0
63 -63 0
64 -64 0
30 -67 0
30 -68 0
67 -67 0
68 -68 0
45 -71 0
45 -72 0
71 -71 0
72 -72 0
60 -75 0
60 -76 0
75 -75 0
76 -76 0
-109 63 0
109 -63 0
-110 64 0
109 -64 0
-109 -63 0
-110 -64 0
-113 63 109 0
113 -63 0
113 -109 0
-114 64 110 0
114 -64 0
114 -110 0
-113 -67 0
-114 -68 0
-117 67 113 0
117 -67 0
117 -113 0
-118 68 114 0
118 -68 0
118 -114 0
-117 -71 0
-118 -72 0
-121 71 117 0
121 -71 0
121 -117 0
-122 72 118 0
122 -72 0
122 -118 0
-121 -75 0
-122 -76 0
121 0
122 0
